nodes = 30;
edges = 34;
starts = [1, 2, 3, 3, 4, 5, 6, 7, 8, 9, 9, 10, 11, 12, 13, 13, 14, 15, 16, 16, 17, 18, 18, 20, 20, 21, 22, 22, 24, 25, 26, 27, 28, 29];
ends = [2, 3, 4, 10, 5, 12, 7, 14, 9, 10, 17, 11, 12, 13, 14, 21, 15, 23, 17, 24, 18, 19, 26, 21, 28, 22, 23, 30, 25, 26, 27, 28, 29, 30];
weights = [10, 1, 10, 19, 12, 4, 5, 4, 7, 12, 10, 3, 7, 16, 7, 18, 2, 11, 7, 14, 5, 8, 6, 13, 16, 16, 3, 14, 1, 10, 7, 6, 3, 16];
start = 1;
end= 30;
tasks = 2;
task = array2d(1..tasks, 1..nodes, [1, 0, 0, 0, 0, 0, 0, 0, 0, 0, 0, 0, 0, 0, 0, 0, 0, 0, 0, 0, 0, 1, 0, 0, 0, 0, 0, 0, 0, 1, 0, 1, 0, 1, 0, 0, 0, 0, 0, 0, 0, 0, 0, 0, 1, 0, 0, 0, 0, 0, 0, 0, 0, 0, 0, 0, 0, 0, 0, 0]);
